DATASET = "thpack5";
INSTANCE = "028";

WIDTH = 233;
HEIGHT = 220;
LENGTH = 587;

NO_OF_SHAPES = 12;
size = [|
  62,59,52 |
  54,52,50 |
  102,69,65 |
  97,76,46 |
  52,50,37 |
  93,85,23 |
  90,38,38 |
  66,60,40 |
  38,31,26 |
  86,60,36 |
  92,47,34 |
  103,69,22 |
|];

verticality = [|
  1,1,1 |
  1,1,1 |
  1,1,1 |
  0,1,1 |
  1,1,1 |
  0,0,1 |
  0,1,1 |
  1,1,1 |
  1,1,1 |
  0,1,1 |
  0,1,1 |
  0,0,1 |
|];

box_count = [
  19,
  12,
  10,
  7,
  18,
  17,
  12,
  21,
  17,
  12,
  15,
  20,
];
